NAME : rnd72_20.tsp
TYPE : TSP
DIMENSION : 20
EDGE_WEIGHT_TYPE : EUC_2D
NODE_COORD_SECTION
0 842 554
1 723 185
2 425 955
3 654 287
4 486 471
5 34 17
6 522 433
7 552 163
8 137 914
9 61 227
10 510 285
11 395 537
12 45 716
13 509 33
14 885 767
15 254 739
16 624 125
17 235 588
18 673 617
19 99 52
